c FILE: I20.clq
c
c SOURCE: Generated by Breno Maurício de Freitas Viana
c         writed
c
c           Graph Stats
c number of vertices  : 40
c number of edges     : 39
p col 40 39
e 1 2
e 1 11
e 1 12
e 1 13
e 2 3
e 2 14
e 2 15
e 2 16
e 3 4
e 3 17
e 3 18
e 3 19
e 4 5
e 4 20
e 4 21
e 4 22
e 5 6
e 5 23
e 5 24
e 5 25
e 6 7
e 6 26
e 6 27
e 6 28
e 7 8
e 7 29
e 7 30
e 7 31
e 8 9
e 8 32
e 8 33
e 8 34
e 9 10
e 9 35
e 9 36
e 9 37
e 10 38
e 10 39
e 10 40